sat
(:max-memory                   18.12
 :memory                       17.98
 :nlsat-irrational-assignments 1
 :nlsat-propagations           6
 :nlsat-stages                 4
 :num-allocs                   6062
 :rlimit-count                 1524
 :time                         0.00
 :total-time                   0.01)
